%oldchk=VinAu12_6.chk
%chk=VinAu12_NMR.chk
%nprocshared=192
%mem=2500GB
#pop=full NMR=GIAO gfprint guess=read pbe1pbe/genecp EmpiricalDispersion=GD3BJ Int=NoBasisTransform IOp(10/33=2)

V@Au12opt/pbe0 dft-d3 def2-TZVPD

4 6
Au	0.596608    2.544649    0.897014
Au	-0.596391   -2.544502   -0.897122
Au	-0.823100    0.632747    2.560671
Au	-2.413917   -1.065221    0.820941
Au	-2.117640    1.761858    0.217309
Au	-1.978270   -0.201807   -1.918757
Au	-0.116656    2.028684   -1.872332
Au	0.822906   -0.633265   -2.560511
Au	2.413708    1.065399   -0.821285
Au	2.117897   -1.761563   -0.216895
Au	1.978188    0.201841    1.918634
Au	0.116678   -2.028827    1.872324
V	-0.000035    0.000022    0.000027

@TZVP.txt
